p edge 20 99 8
v 3 1 5 13
v 3 7 11 14
v 2 12 19
v 1 16
v 4 3 4 8 15
v 3 6 17 20
v 1 18
v 3 2 9 10
e 1 2
e 1 3
e 1 5
e 1 10
e 1 11
e 1 14
e 1 20
e 2 4
e 2 6
e 2 7
e 2 9
e 2 11
e 2 12
e 2 14
e 2 16
e 2 17
e 2 19
e 2 20
e 3 6
e 3 7
e 3 11
e 3 13
e 3 15
e 3 17
e 3 18
e 3 20
e 4 10
e 4 12
e 4 14
e 4 17
e 4 19
e 5 8
e 5 12
e 5 13
e 5 14
e 5 15
e 5 17
e 5 19
e 5 20
e 6 7
e 6 11
e 6 12
e 6 13
e 6 16
e 6 17
e 6 19
e 7 10
e 7 12
e 7 14
e 7 15
e 7 17
e 7 19
e 8 11
e 8 12
e 8 13
e 8 14
e 8 15
e 8 16
e 8 18
e 8 19
e 8 20
e 9 10
e 9 12
e 9 14
e 9 15
e 9 17
e 9 19
e 9 20
e 10 12
e 10 13
e 10 15
e 10 16
e 11 12
e 11 14
e 11 15
e 11 16
e 12 13
e 12 14
e 12 15
e 12 16
e 12 17
e 13 15
e 13 16
e 13 20
e 14 15
e 14 16
e 14 17
e 14 18
e 15 16
e 15 18
e 15 19
e 16 17
e 16 18
e 16 20
e 17 19
e 17 20
e 18 19
e 18 20
e 19 20
